\ Model FlowOPT
\ LP format - for model browsing. Use MPS format to capture full model detail.
Maximize
  0.5204193934148154 z[0,1] + 0.3180926213109491 z[1,1]
   + 0.8474817250899647 z[2,1] + 1.035577410348273 z[3,1]
   + 1.720228075955219 z[4,1] + 3.589400974124548 z[5,1]
   + 0.950240256138599 z[6,1] + 0.5341890732677387 z[7,1]
   + 2.108860455417127 z[8,1] + 0.3955050988726908 z[9,1]
   + 0.6579254525198682 z[10,1] + 0.6893069531108027 z[11,1]
   + 0.6191744134004084 z[12,1] + 0.3874155651957465 z[13,1]
   + 0.4587434440302001 z[14,1] + 0.4763447407594579 z[15,1]
   + 0.6550200564771921 z[16,1] + 0.7472067270856844 z[17,1]
   + 0.8334685821189606 z[18,1] + 0.5118963379478813 z[19,1]
   + 0.6238342537591838 z[20,1] + 1.275029125329536 z[21,1]
   + 0.6192953316434963 z[22,1] + 0.435421774648335 z[23,1]
   + 0.4450251714954202 z[24,1] + 0.3909367814765966 z[25,1]
   + 1.223382106152141 z[26,1] + 0.8579943903723429 z[27,1]
   + 1.570352414364703 z[28,1] + 0.2430287248622091 z[29,1]
   + 0.4996329651148972 z[30,1] + 1.067090275438505 z[31,1]
   + 0.9091891387004855 z[32,1] + 1.089446091098951 z[33,1]
   + 0.5763751543058545 z[34,1] + 0.3113053827465097 z[35,1]
   + 0.6952656176192997 z[36,1] + 0.3990709054998006 z[37,1]
   + 2.227022046955118 z[38,1] + 1.312145712254653 z[39,1]
   + 0.6782327342343397 z[40,1] + 1.196348053454679 z[41,1]
   + 2.128222369371688 z[42,1] + 1.018979439505322 z[43,1]
   + 0.820614575788653 z[44,1] + 1.664168187036067 z[45,1]
   + 1.015966539170154 z[46,1] + 0.3936623407704277 z[47,1]
   + 0.5367733727537342 z[48,1] + 2.894908883014295 z[49,1]
   + 1.862353682099081 z[50,1] + 0.5591549065238219 z[51,1]
   + 0.423228514241692 z[52,1] + 0.8899502788086743 z[53,1]
   + 0.5506718462293748 z[54,1] + 1.077254986714052 z[55,1]
   + 0.5667274197297326 z[57,1] + 1.129098448944536 z[58,1]
   + 0.4705143106843576 z[59,1] + 0.8758143633924261 z[60,1]
   + 4.335376054907777 z[61,1] + 0.6196095635711051 z[62,1]
   + 0.5472001619699248 z[63,1] + 0.4890491033680722 z[64,1]
   + 0.6779130187730629 z[65,1] + 0.6028587778146568 z[66,1]
   + 0.2256712941469169 z[67,1] + 0.3321323333274759 z[68,1]
   + 1.003853307537484 z[69,1] + 0.4979873934943382 z[70,1]
   + 0.8310626180567505 z[71,1] + 7.698554228470815 z[72,1]
   + 0.6213535597461572 z[73,1] + 1.015372100522722 z[74,1]
   + 0.5720445971486573 z[75,1] + 0.8938296896690978 z[76,1]
   + 0.4453445995556027 z[77,1] + 0.4625397906003385 z[78,1]
   + 0.477358354696915 z[79,1] + 0.580266225347194 z[80,1]
   + 0.3982838724713257 z[81,1] + 0.7012729711694898 z[82,1]
   + 0.7440912499565225 z[83,1] + 0.965809594324253 z[84,1]
   + 0.7700389111811647 z[85,1] + 0.5314895173671421 z[86,1]
   + 0.1818972402346272 z[87,1] + 0.3832671310531341 z[88,1]
   + 0.4296767047477535 z[89,1] + 0.7042494829755572 z[90,1]
   + 0.493752633951632 z[91,1] + 0.6087046449967807 z[92,1]
   + 0.4914944959550045 z[93,1] + 0.5540528339544488 z[94,1]
   + 0.671986816123659 z[95,1] + 0.3036551135536405 z[96,1]
   + 1.420158129149731 z[97,1] + 0.6619016003768111 z[98,1]
   + 0.3372300177195833 z[99,1]
Subject To
 R0: p[1] = 1
 R1: - w[1,0] + zeta[0,1] <= 0
 R2: - w[1,0] + zeta[1,1] <= 0
 R3: - w[1,1] + zeta[2,1] <= 0
 R4: - w[1,1] + zeta[3,1] <= 0
 R5: - w[1,0] + zeta[4,1] <= 0
 R6: - w[1,1] + zeta[5,1] <= 0
 R7: - w[1,1] + zeta[6,1] <= 0
 R8: - w[1,0] + zeta[7,1] <= 0
 R9: - w[1,0] + zeta[8,1] <= 0
 R10: - w[1,1] + zeta[9,1] <= 0
 R11: - w[1,0] + zeta[10,1] <= 0
 R12: - w[1,1] + zeta[11,1] <= 0
 R13: - w[1,0] + zeta[12,1] <= 0
 R14: - w[1,0] + zeta[13,1] <= 0
 R15: - w[1,1] + zeta[14,1] <= 0
 R16: - w[1,1] + zeta[15,1] <= 0
 R17: - w[1,0] + zeta[16,1] <= 0
 R18: - w[1,1] + zeta[17,1] <= 0
 R19: - w[1,1] + zeta[18,1] <= 0
 R20: - w[1,0] + zeta[19,1] <= 0
 R21: - w[1,1] + zeta[20,1] <= 0
 R22: - w[1,1] + zeta[21,1] <= 0
 R23: - w[1,1] + zeta[22,1] <= 0
 R24: - w[1,1] + zeta[23,1] <= 0
 R25: - w[1,0] + zeta[24,1] <= 0
 R26: - w[1,0] + zeta[25,1] <= 0
 R27: - w[1,1] + zeta[26,1] <= 0
 R28: - w[1,1] + zeta[27,1] <= 0
 R29: - w[1,0] + zeta[28,1] <= 0
 R30: - w[1,1] + zeta[29,1] <= 0
 R31: - w[1,0] + zeta[30,1] <= 0
 R32: - w[1,1] + zeta[31,1] <= 0
 R33: - w[1,0] + zeta[32,1] <= 0
 R34: - w[1,1] + zeta[33,1] <= 0
 R35: - w[1,0] + zeta[34,1] <= 0
 R36: - w[1,0] + zeta[35,1] <= 0
 R37: - w[1,0] + zeta[36,1] <= 0
 R38: - w[1,0] + zeta[37,1] <= 0
 R39: - w[1,0] + zeta[38,1] <= 0
 R40: - w[1,0] + zeta[39,1] <= 0
 R41: - w[1,1] + zeta[40,1] <= 0
 R42: - w[1,0] + zeta[41,1] <= 0
 R43: - w[1,0] + zeta[42,1] <= 0
 R44: - w[1,1] + zeta[43,1] <= 0
 R45: - w[1,1] + zeta[44,1] <= 0
 R46: - w[1,0] + zeta[45,1] <= 0
 R47: - w[1,1] + zeta[46,1] <= 0
 R48: - w[1,0] + zeta[47,1] <= 0
 R49: - w[1,0] + zeta[48,1] <= 0
 R50: - w[1,1] + zeta[49,1] <= 0
 R51: - w[1,1] + zeta[50,1] <= 0
 R52: - w[1,0] + zeta[51,1] <= 0
 R53: - w[1,0] + zeta[52,1] <= 0
 R54: - w[1,0] + zeta[53,1] <= 0
 R55: - w[1,1] + zeta[54,1] <= 0
 R56: - w[1,0] + zeta[55,1] <= 0
 R57: - w[1,0] + zeta[56,1] <= 0
 R58: - w[1,0] + zeta[57,1] <= 0
 R59: - w[1,0] + zeta[58,1] <= 0
 R60: - w[1,0] + zeta[59,1] <= 0
 R61: - w[1,0] + zeta[60,1] <= 0
 R62: - w[1,1] + zeta[61,1] <= 0
 R63: - w[1,1] + zeta[62,1] <= 0
 R64: - w[1,1] + zeta[63,1] <= 0
 R65: - w[1,0] + zeta[64,1] <= 0
 R66: - w[1,1] + zeta[65,1] <= 0
 R67: - w[1,0] + zeta[66,1] <= 0
 R68: - w[1,0] + zeta[67,1] <= 0
 R69: - w[1,1] + zeta[68,1] <= 0
 R70: - w[1,0] + zeta[69,1] <= 0
 R71: - w[1,1] + zeta[70,1] <= 0
 R72: - w[1,1] + zeta[71,1] <= 0
 R73: - w[1,1] + zeta[72,1] <= 0
 R74: - w[1,1] + zeta[73,1] <= 0
 R75: - w[1,1] + zeta[74,1] <= 0
 R76: - w[1,1] + zeta[75,1] <= 0
 R77: - w[1,0] + zeta[76,1] <= 0
 R78: - w[1,1] + zeta[77,1] <= 0
 R79: - w[1,0] + zeta[78,1] <= 0
 R80: - w[1,1] + zeta[79,1] <= 0
 R81: - w[1,1] + zeta[80,1] <= 0
 R82: - w[1,0] + zeta[81,1] <= 0
 R83: - w[1,0] + zeta[82,1] <= 0
 R84: - w[1,0] + zeta[83,1] <= 0
 R85: - w[1,0] + zeta[84,1] <= 0
 R86: - w[1,0] + zeta[85,1] <= 0
 R87: - w[1,0] + zeta[86,1] <= 0
 R88: - w[1,0] + zeta[87,1] <= 0
 R89: - w[1,0] + zeta[88,1] <= 0
 R90: - w[1,0] + zeta[89,1] <= 0
 R91: - w[1,0] + zeta[90,1] <= 0
 R92: - w[1,0] + zeta[91,1] <= 0
 R93: - w[1,1] + zeta[92,1] <= 0
 R94: - w[1,1] + zeta[93,1] <= 0
 R95: - w[1,1] + zeta[94,1] <= 0
 R96: - w[1,1] + zeta[95,1] <= 0
 R97: - w[1,1] + zeta[96,1] <= 0
 R98: - w[1,0] + zeta[97,1] <= 0
 R99: - w[1,0] + zeta[98,1] <= 0
 R100: - w[1,0] + zeta[99,1] <= 0
 R101: - p[1] + w[1,0] + w[1,1] = 0
 R102: zeta[0,1] - z[0,1] = 0
 R103: zeta[1,1] - z[1,1] = 0
 R104: zeta[2,1] - z[2,1] = 0
 R105: zeta[3,1] - z[3,1] = 0
 R106: zeta[4,1] - z[4,1] = 0
 R107: zeta[5,1] - z[5,1] = 0
 R108: zeta[6,1] - z[6,1] = 0
 R109: zeta[7,1] - z[7,1] = 0
 R110: zeta[8,1] - z[8,1] = 0
 R111: zeta[9,1] - z[9,1] = 0
 R112: zeta[10,1] - z[10,1] = 0
 R113: zeta[11,1] - z[11,1] = 0
 R114: zeta[12,1] - z[12,1] = 0
 R115: zeta[13,1] - z[13,1] = 0
 R116: zeta[14,1] - z[14,1] = 0
 R117: zeta[15,1] - z[15,1] = 0
 R118: zeta[16,1] - z[16,1] = 0
 R119: zeta[17,1] - z[17,1] = 0
 R120: zeta[18,1] - z[18,1] = 0
 R121: zeta[19,1] - z[19,1] = 0
 R122: zeta[20,1] - z[20,1] = 0
 R123: zeta[21,1] - z[21,1] = 0
 R124: zeta[22,1] - z[22,1] = 0
 R125: zeta[23,1] - z[23,1] = 0
 R126: zeta[24,1] - z[24,1] = 0
 R127: zeta[25,1] - z[25,1] = 0
 R128: zeta[26,1] - z[26,1] = 0
 R129: zeta[27,1] - z[27,1] = 0
 R130: zeta[28,1] - z[28,1] = 0
 R131: zeta[29,1] - z[29,1] = 0
 R132: zeta[30,1] - z[30,1] = 0
 R133: zeta[31,1] - z[31,1] = 0
 R134: zeta[32,1] - z[32,1] = 0
 R135: zeta[33,1] - z[33,1] = 0
 R136: zeta[34,1] - z[34,1] = 0
 R137: zeta[35,1] - z[35,1] = 0
 R138: zeta[36,1] - z[36,1] = 0
 R139: zeta[37,1] - z[37,1] = 0
 R140: zeta[38,1] - z[38,1] = 0
 R141: zeta[39,1] - z[39,1] = 0
 R142: zeta[40,1] - z[40,1] = 0
 R143: zeta[41,1] - z[41,1] = 0
 R144: zeta[42,1] - z[42,1] = 0
 R145: zeta[43,1] - z[43,1] = 0
 R146: zeta[44,1] - z[44,1] = 0
 R147: zeta[45,1] - z[45,1] = 0
 R148: zeta[46,1] - z[46,1] = 0
 R149: zeta[47,1] - z[47,1] = 0
 R150: zeta[48,1] - z[48,1] = 0
 R151: zeta[49,1] - z[49,1] = 0
 R152: zeta[50,1] - z[50,1] = 0
 R153: zeta[51,1] - z[51,1] = 0
 R154: zeta[52,1] - z[52,1] = 0
 R155: zeta[53,1] - z[53,1] = 0
 R156: zeta[54,1] - z[54,1] = 0
 R157: zeta[55,1] - z[55,1] = 0
 R158: zeta[56,1] - z[56,1] = 0
 R159: zeta[57,1] - z[57,1] = 0
 R160: zeta[58,1] - z[58,1] = 0
 R161: zeta[59,1] - z[59,1] = 0
 R162: zeta[60,1] - z[60,1] = 0
 R163: zeta[61,1] - z[61,1] = 0
 R164: zeta[62,1] - z[62,1] = 0
 R165: zeta[63,1] - z[63,1] = 0
 R166: zeta[64,1] - z[64,1] = 0
 R167: zeta[65,1] - z[65,1] = 0
 R168: zeta[66,1] - z[66,1] = 0
 R169: zeta[67,1] - z[67,1] = 0
 R170: zeta[68,1] - z[68,1] = 0
 R171: zeta[69,1] - z[69,1] = 0
 R172: zeta[70,1] - z[70,1] = 0
 R173: zeta[71,1] - z[71,1] = 0
 R174: zeta[72,1] - z[72,1] = 0
 R175: zeta[73,1] - z[73,1] = 0
 R176: zeta[74,1] - z[74,1] = 0
 R177: zeta[75,1] - z[75,1] = 0
 R178: zeta[76,1] - z[76,1] = 0
 R179: zeta[77,1] - z[77,1] = 0
 R180: zeta[78,1] - z[78,1] = 0
 R181: zeta[79,1] - z[79,1] = 0
 R182: zeta[80,1] - z[80,1] = 0
 R183: zeta[81,1] - z[81,1] = 0
 R184: zeta[82,1] - z[82,1] = 0
 R185: zeta[83,1] - z[83,1] = 0
 R186: zeta[84,1] - z[84,1] = 0
 R187: zeta[85,1] - z[85,1] = 0
 R188: zeta[86,1] - z[86,1] = 0
 R189: zeta[87,1] - z[87,1] = 0
 R190: zeta[88,1] - z[88,1] = 0
 R191: zeta[89,1] - z[89,1] = 0
 R192: zeta[90,1] - z[90,1] = 0
 R193: zeta[91,1] - z[91,1] = 0
 R194: zeta[92,1] - z[92,1] = 0
 R195: zeta[93,1] - z[93,1] = 0
 R196: zeta[94,1] - z[94,1] = 0
 R197: zeta[95,1] - z[95,1] = 0
 R198: zeta[96,1] - z[96,1] = 0
 R199: zeta[97,1] - z[97,1] = 0
 R200: zeta[98,1] - z[98,1] = 0
 R201: zeta[99,1] - z[99,1] = 0
Bounds
Binaries
 p[1]
End
